c Variable names:
c 	        1                 x1 temp=0
c 	        2                 x2 temp=0
c 	        3                 x3 temp=0
c 	        4                 x4 temp=0
c 	        5                 x5 temp=0
c 	        6                 x6 temp=0
c 	        7                 x7 temp=0
c 	        8                 x8 temp=0
c 	        9                 x9 temp=0
c 	       10                x10 temp=0
c 	       11                x11 temp=0
c 	       12                x12 temp=0
c 	       13                x13 temp=0
c 	       14                x14 temp=0
c 	       15                x15 temp=0
c 	       16                x16 temp=0
c 	       17                x17 temp=0
c 	       18                x18 temp=0
c 	       19                x19 temp=0
c 	       20                x20 temp=0
c 	       21                x21 temp=0
c 	       22                x22 temp=0
c 	       23                x23 temp=0
c 	       24                x24 temp=0
c 	       25                x25 temp=0
c 	       26                x26 temp=0
c 	       27                x27 temp=0
c 	       28                x28 temp=0
c 	       29                x29 temp=0
c 	       30                x30 temp=0
c 	       31                x31 temp=0
c 	       32                x32 temp=0
c 	       33                x33 temp=0
c 	       34                x34 temp=0
c 	       35                x35 temp=0
c 	       36                x36 temp=0
c 	       37                x37 temp=0
c 	       38                x38 temp=0
c 	       39                x39 temp=0
c 	       40                x40 temp=0
c 	       41                x41 temp=0
c 	       42                x42 temp=0
c 	       43                x43 temp=0
c 	       44                x44 temp=0
c 	       45                x45 temp=0
c 	       46                x46 temp=0
c 	       47                x47 temp=0
c 	       48                x48 temp=0
c 	       49                x49 temp=0
c 	       50                x50 temp=0
c 	       51                x51 temp=0
c 	       52                x52 temp=0
c 	       53                x53 temp=0
c 	       54                x54 temp=0
c 	       55                x55 temp=0
c 	       56                x56 temp=0
c 	       57                x57 temp=0
c 	       58                x58 temp=0
c 	       59                x59 temp=0
c 	       60                x60 temp=0
c 	       61                x61 temp=0
c 	       62                x62 temp=0
c 	       63                x63 temp=0
c 	       64                x64 temp=0
c 	       65                x65 temp=0
c 	       66                x66 temp=0
c 	       67                x67 temp=0
c 	       68                x68 temp=0
c 	       69                x69 temp=0
c 	       70                x70 temp=0
c 	       71                x71 temp=0
c 	       72                x72 temp=0
c 	       73                x73 temp=0
c 	       74                x74 temp=0
c 	       75                x75 temp=0
c 	       76                x76 temp=0
p cnf 76 1730
1 2 3 0
2 3 4 0
3 4 5 0
4 5 6 0
5 6 7 0
6 7 8 0
7 8 9 0
8 9 10 0
9 10 11 0
10 11 12 0
11 12 13 0
12 13 14 0
13 14 15 0
14 15 16 0
15 16 17 0
16 17 18 0
17 18 19 0
18 19 20 0
19 20 21 0
20 21 22 0
21 22 23 0
22 23 24 0
23 24 25 0
24 25 26 0
25 26 27 0
26 27 28 0
27 28 29 0
28 29 30 0
29 30 31 0
30 31 32 0
31 32 33 0
32 33 34 0
33 34 35 0
34 35 36 0
35 36 37 0
36 37 38 0
37 38 39 0
38 39 40 0
39 40 41 0
40 41 42 0
41 42 43 0
42 43 44 0
43 44 45 0
44 45 46 0
45 46 47 0
46 47 48 0
47 48 49 0
48 49 50 0
49 50 51 0
50 51 52 0
51 52 53 0
52 53 54 0
53 54 55 0
54 55 56 0
55 56 57 0
56 57 58 0
57 58 59 0
58 59 60 0
59 60 61 0
60 61 62 0
61 62 63 0
62 63 64 0
63 64 65 0
64 65 66 0
65 66 67 0
66 67 68 0
67 68 69 0
68 69 70 0
69 70 71 0
70 71 72 0
71 72 73 0
72 73 74 0
73 74 75 0
74 75 76 0
-1 -2 -3 -4 -5 -6 -7 -8 -9 0
-2 -3 -4 -5 -6 -7 -8 -9 -10 0
-3 -4 -5 -6 -7 -8 -9 -10 -11 0
-4 -5 -6 -7 -8 -9 -10 -11 -12 0
-5 -6 -7 -8 -9 -10 -11 -12 -13 0
-6 -7 -8 -9 -10 -11 -12 -13 -14 0
-7 -8 -9 -10 -11 -12 -13 -14 -15 0
-8 -9 -10 -11 -12 -13 -14 -15 -16 0
-9 -10 -11 -12 -13 -14 -15 -16 -17 0
-10 -11 -12 -13 -14 -15 -16 -17 -18 0
-11 -12 -13 -14 -15 -16 -17 -18 -19 0
-12 -13 -14 -15 -16 -17 -18 -19 -20 0
-13 -14 -15 -16 -17 -18 -19 -20 -21 0
-14 -15 -16 -17 -18 -19 -20 -21 -22 0
-15 -16 -17 -18 -19 -20 -21 -22 -23 0
-16 -17 -18 -19 -20 -21 -22 -23 -24 0
-17 -18 -19 -20 -21 -22 -23 -24 -25 0
-18 -19 -20 -21 -22 -23 -24 -25 -26 0
-19 -20 -21 -22 -23 -24 -25 -26 -27 0
-20 -21 -22 -23 -24 -25 -26 -27 -28 0
-21 -22 -23 -24 -25 -26 -27 -28 -29 0
-22 -23 -24 -25 -26 -27 -28 -29 -30 0
-23 -24 -25 -26 -27 -28 -29 -30 -31 0
-24 -25 -26 -27 -28 -29 -30 -31 -32 0
-25 -26 -27 -28 -29 -30 -31 -32 -33 0
-26 -27 -28 -29 -30 -31 -32 -33 -34 0
-27 -28 -29 -30 -31 -32 -33 -34 -35 0
-28 -29 -30 -31 -32 -33 -34 -35 -36 0
-29 -30 -31 -32 -33 -34 -35 -36 -37 0
-30 -31 -32 -33 -34 -35 -36 -37 -38 0
-31 -32 -33 -34 -35 -36 -37 -38 -39 0
-32 -33 -34 -35 -36 -37 -38 -39 -40 0
-33 -34 -35 -36 -37 -38 -39 -40 -41 0
-34 -35 -36 -37 -38 -39 -40 -41 -42 0
-35 -36 -37 -38 -39 -40 -41 -42 -43 0
-36 -37 -38 -39 -40 -41 -42 -43 -44 0
-37 -38 -39 -40 -41 -42 -43 -44 -45 0
-38 -39 -40 -41 -42 -43 -44 -45 -46 0
-39 -40 -41 -42 -43 -44 -45 -46 -47 0
-40 -41 -42 -43 -44 -45 -46 -47 -48 0
-41 -42 -43 -44 -45 -46 -47 -48 -49 0
-42 -43 -44 -45 -46 -47 -48 -49 -50 0
-43 -44 -45 -46 -47 -48 -49 -50 -51 0
-44 -45 -46 -47 -48 -49 -50 -51 -52 0
-45 -46 -47 -48 -49 -50 -51 -52 -53 0
-46 -47 -48 -49 -50 -51 -52 -53 -54 0
-47 -48 -49 -50 -51 -52 -53 -54 -55 0
-48 -49 -50 -51 -52 -53 -54 -55 -56 0
-49 -50 -51 -52 -53 -54 -55 -56 -57 0
-50 -51 -52 -53 -54 -55 -56 -57 -58 0
-51 -52 -53 -54 -55 -56 -57 -58 -59 0
-52 -53 -54 -55 -56 -57 -58 -59 -60 0
-53 -54 -55 -56 -57 -58 -59 -60 -61 0
-54 -55 -56 -57 -58 -59 -60 -61 -62 0
-55 -56 -57 -58 -59 -60 -61 -62 -63 0
-56 -57 -58 -59 -60 -61 -62 -63 -64 0
-57 -58 -59 -60 -61 -62 -63 -64 -65 0
-58 -59 -60 -61 -62 -63 -64 -65 -66 0
-59 -60 -61 -62 -63 -64 -65 -66 -67 0
-60 -61 -62 -63 -64 -65 -66 -67 -68 0
-61 -62 -63 -64 -65 -66 -67 -68 -69 0
-62 -63 -64 -65 -66 -67 -68 -69 -70 0
-63 -64 -65 -66 -67 -68 -69 -70 -71 0
-64 -65 -66 -67 -68 -69 -70 -71 -72 0
-65 -66 -67 -68 -69 -70 -71 -72 -73 0
-66 -67 -68 -69 -70 -71 -72 -73 -74 0
-67 -68 -69 -70 -71 -72 -73 -74 -75 0
-68 -69 -70 -71 -72 -73 -74 -75 -76 0
1 3 5 0
2 4 6 0
3 5 7 0
4 6 8 0
5 7 9 0
6 8 10 0
7 9 11 0
8 10 12 0
9 11 13 0
10 12 14 0
11 13 15 0
12 14 16 0
13 15 17 0
14 16 18 0
15 17 19 0
16 18 20 0
17 19 21 0
18 20 22 0
19 21 23 0
20 22 24 0
21 23 25 0
22 24 26 0
23 25 27 0
24 26 28 0
25 27 29 0
26 28 30 0
27 29 31 0
28 30 32 0
29 31 33 0
30 32 34 0
31 33 35 0
32 34 36 0
33 35 37 0
34 36 38 0
35 37 39 0
36 38 40 0
37 39 41 0
38 40 42 0
39 41 43 0
40 42 44 0
41 43 45 0
42 44 46 0
43 45 47 0
44 46 48 0
45 47 49 0
46 48 50 0
47 49 51 0
48 50 52 0
49 51 53 0
50 52 54 0
51 53 55 0
52 54 56 0
53 55 57 0
54 56 58 0
55 57 59 0
56 58 60 0
57 59 61 0
58 60 62 0
59 61 63 0
60 62 64 0
61 63 65 0
62 64 66 0
63 65 67 0
64 66 68 0
65 67 69 0
66 68 70 0
67 69 71 0
68 70 72 0
69 71 73 0
70 72 74 0
71 73 75 0
72 74 76 0
-1 -3 -5 -7 -9 -11 -13 -15 -17 0
-2 -4 -6 -8 -10 -12 -14 -16 -18 0
-3 -5 -7 -9 -11 -13 -15 -17 -19 0
-4 -6 -8 -10 -12 -14 -16 -18 -20 0
-5 -7 -9 -11 -13 -15 -17 -19 -21 0
-6 -8 -10 -12 -14 -16 -18 -20 -22 0
-7 -9 -11 -13 -15 -17 -19 -21 -23 0
-8 -10 -12 -14 -16 -18 -20 -22 -24 0
-9 -11 -13 -15 -17 -19 -21 -23 -25 0
-10 -12 -14 -16 -18 -20 -22 -24 -26 0
-11 -13 -15 -17 -19 -21 -23 -25 -27 0
-12 -14 -16 -18 -20 -22 -24 -26 -28 0
-13 -15 -17 -19 -21 -23 -25 -27 -29 0
-14 -16 -18 -20 -22 -24 -26 -28 -30 0
-15 -17 -19 -21 -23 -25 -27 -29 -31 0
-16 -18 -20 -22 -24 -26 -28 -30 -32 0
-17 -19 -21 -23 -25 -27 -29 -31 -33 0
-18 -20 -22 -24 -26 -28 -30 -32 -34 0
-19 -21 -23 -25 -27 -29 -31 -33 -35 0
-20 -22 -24 -26 -28 -30 -32 -34 -36 0
-21 -23 -25 -27 -29 -31 -33 -35 -37 0
-22 -24 -26 -28 -30 -32 -34 -36 -38 0
-23 -25 -27 -29 -31 -33 -35 -37 -39 0
-24 -26 -28 -30 -32 -34 -36 -38 -40 0
-25 -27 -29 -31 -33 -35 -37 -39 -41 0
-26 -28 -30 -32 -34 -36 -38 -40 -42 0
-27 -29 -31 -33 -35 -37 -39 -41 -43 0
-28 -30 -32 -34 -36 -38 -40 -42 -44 0
-29 -31 -33 -35 -37 -39 -41 -43 -45 0
-30 -32 -34 -36 -38 -40 -42 -44 -46 0
-31 -33 -35 -37 -39 -41 -43 -45 -47 0
-32 -34 -36 -38 -40 -42 -44 -46 -48 0
-33 -35 -37 -39 -41 -43 -45 -47 -49 0
-34 -36 -38 -40 -42 -44 -46 -48 -50 0
-35 -37 -39 -41 -43 -45 -47 -49 -51 0
-36 -38 -40 -42 -44 -46 -48 -50 -52 0
-37 -39 -41 -43 -45 -47 -49 -51 -53 0
-38 -40 -42 -44 -46 -48 -50 -52 -54 0
-39 -41 -43 -45 -47 -49 -51 -53 -55 0
-40 -42 -44 -46 -48 -50 -52 -54 -56 0
-41 -43 -45 -47 -49 -51 -53 -55 -57 0
-42 -44 -46 -48 -50 -52 -54 -56 -58 0
-43 -45 -47 -49 -51 -53 -55 -57 -59 0
-44 -46 -48 -50 -52 -54 -56 -58 -60 0
-45 -47 -49 -51 -53 -55 -57 -59 -61 0
-46 -48 -50 -52 -54 -56 -58 -60 -62 0
-47 -49 -51 -53 -55 -57 -59 -61 -63 0
-48 -50 -52 -54 -56 -58 -60 -62 -64 0
-49 -51 -53 -55 -57 -59 -61 -63 -65 0
-50 -52 -54 -56 -58 -60 -62 -64 -66 0
-51 -53 -55 -57 -59 -61 -63 -65 -67 0
-52 -54 -56 -58 -60 -62 -64 -66 -68 0
-53 -55 -57 -59 -61 -63 -65 -67 -69 0
-54 -56 -58 -60 -62 -64 -66 -68 -70 0
-55 -57 -59 -61 -63 -65 -67 -69 -71 0
-56 -58 -60 -62 -64 -66 -68 -70 -72 0
-57 -59 -61 -63 -65 -67 -69 -71 -73 0
-58 -60 -62 -64 -66 -68 -70 -72 -74 0
-59 -61 -63 -65 -67 -69 -71 -73 -75 0
-60 -62 -64 -66 -68 -70 -72 -74 -76 0
1 4 7 0
2 5 8 0
3 6 9 0
4 7 10 0
5 8 11 0
6 9 12 0
7 10 13 0
8 11 14 0
9 12 15 0
10 13 16 0
11 14 17 0
12 15 18 0
13 16 19 0
14 17 20 0
15 18 21 0
16 19 22 0
17 20 23 0
18 21 24 0
19 22 25 0
20 23 26 0
21 24 27 0
22 25 28 0
23 26 29 0
24 27 30 0
25 28 31 0
26 29 32 0
27 30 33 0
28 31 34 0
29 32 35 0
30 33 36 0
31 34 37 0
32 35 38 0
33 36 39 0
34 37 40 0
35 38 41 0
36 39 42 0
37 40 43 0
38 41 44 0
39 42 45 0
40 43 46 0
41 44 47 0
42 45 48 0
43 46 49 0
44 47 50 0
45 48 51 0
46 49 52 0
47 50 53 0
48 51 54 0
49 52 55 0
50 53 56 0
51 54 57 0
52 55 58 0
53 56 59 0
54 57 60 0
55 58 61 0
56 59 62 0
57 60 63 0
58 61 64 0
59 62 65 0
60 63 66 0
61 64 67 0
62 65 68 0
63 66 69 0
64 67 70 0
65 68 71 0
66 69 72 0
67 70 73 0
68 71 74 0
69 72 75 0
70 73 76 0
-1 -4 -7 -10 -13 -16 -19 -22 -25 0
-2 -5 -8 -11 -14 -17 -20 -23 -26 0
-3 -6 -9 -12 -15 -18 -21 -24 -27 0
-4 -7 -10 -13 -16 -19 -22 -25 -28 0
-5 -8 -11 -14 -17 -20 -23 -26 -29 0
-6 -9 -12 -15 -18 -21 -24 -27 -30 0
-7 -10 -13 -16 -19 -22 -25 -28 -31 0
-8 -11 -14 -17 -20 -23 -26 -29 -32 0
-9 -12 -15 -18 -21 -24 -27 -30 -33 0
-10 -13 -16 -19 -22 -25 -28 -31 -34 0
-11 -14 -17 -20 -23 -26 -29 -32 -35 0
-12 -15 -18 -21 -24 -27 -30 -33 -36 0
-13 -16 -19 -22 -25 -28 -31 -34 -37 0
-14 -17 -20 -23 -26 -29 -32 -35 -38 0
-15 -18 -21 -24 -27 -30 -33 -36 -39 0
-16 -19 -22 -25 -28 -31 -34 -37 -40 0
-17 -20 -23 -26 -29 -32 -35 -38 -41 0
-18 -21 -24 -27 -30 -33 -36 -39 -42 0
-19 -22 -25 -28 -31 -34 -37 -40 -43 0
-20 -23 -26 -29 -32 -35 -38 -41 -44 0
-21 -24 -27 -30 -33 -36 -39 -42 -45 0
-22 -25 -28 -31 -34 -37 -40 -43 -46 0
-23 -26 -29 -32 -35 -38 -41 -44 -47 0
-24 -27 -30 -33 -36 -39 -42 -45 -48 0
-25 -28 -31 -34 -37 -40 -43 -46 -49 0
-26 -29 -32 -35 -38 -41 -44 -47 -50 0
-27 -30 -33 -36 -39 -42 -45 -48 -51 0
-28 -31 -34 -37 -40 -43 -46 -49 -52 0
-29 -32 -35 -38 -41 -44 -47 -50 -53 0
-30 -33 -36 -39 -42 -45 -48 -51 -54 0
-31 -34 -37 -40 -43 -46 -49 -52 -55 0
-32 -35 -38 -41 -44 -47 -50 -53 -56 0
-33 -36 -39 -42 -45 -48 -51 -54 -57 0
-34 -37 -40 -43 -46 -49 -52 -55 -58 0
-35 -38 -41 -44 -47 -50 -53 -56 -59 0
-36 -39 -42 -45 -48 -51 -54 -57 -60 0
-37 -40 -43 -46 -49 -52 -55 -58 -61 0
-38 -41 -44 -47 -50 -53 -56 -59 -62 0
-39 -42 -45 -48 -51 -54 -57 -60 -63 0
-40 -43 -46 -49 -52 -55 -58 -61 -64 0
-41 -44 -47 -50 -53 -56 -59 -62 -65 0
-42 -45 -48 -51 -54 -57 -60 -63 -66 0
-43 -46 -49 -52 -55 -58 -61 -64 -67 0
-44 -47 -50 -53 -56 -59 -62 -65 -68 0
-45 -48 -51 -54 -57 -60 -63 -66 -69 0
-46 -49 -52 -55 -58 -61 -64 -67 -70 0
-47 -50 -53 -56 -59 -62 -65 -68 -71 0
-48 -51 -54 -57 -60 -63 -66 -69 -72 0
-49 -52 -55 -58 -61 -64 -67 -70 -73 0
-50 -53 -56 -59 -62 -65 -68 -71 -74 0
-51 -54 -57 -60 -63 -66 -69 -72 -75 0
-52 -55 -58 -61 -64 -67 -70 -73 -76 0
1 5 9 0
2 6 10 0
3 7 11 0
4 8 12 0
5 9 13 0
6 10 14 0
7 11 15 0
8 12 16 0
9 13 17 0
10 14 18 0
11 15 19 0
12 16 20 0
13 17 21 0
14 18 22 0
15 19 23 0
16 20 24 0
17 21 25 0
18 22 26 0
19 23 27 0
20 24 28 0
21 25 29 0
22 26 30 0
23 27 31 0
24 28 32 0
25 29 33 0
26 30 34 0
27 31 35 0
28 32 36 0
29 33 37 0
30 34 38 0
31 35 39 0
32 36 40 0
33 37 41 0
34 38 42 0
35 39 43 0
36 40 44 0
37 41 45 0
38 42 46 0
39 43 47 0
40 44 48 0
41 45 49 0
42 46 50 0
43 47 51 0
44 48 52 0
45 49 53 0
46 50 54 0
47 51 55 0
48 52 56 0
49 53 57 0
50 54 58 0
51 55 59 0
52 56 60 0
53 57 61 0
54 58 62 0
55 59 63 0
56 60 64 0
57 61 65 0
58 62 66 0
59 63 67 0
60 64 68 0
61 65 69 0
62 66 70 0
63 67 71 0
64 68 72 0
65 69 73 0
66 70 74 0
67 71 75 0
68 72 76 0
-1 -5 -9 -13 -17 -21 -25 -29 -33 0
-2 -6 -10 -14 -18 -22 -26 -30 -34 0
-3 -7 -11 -15 -19 -23 -27 -31 -35 0
-4 -8 -12 -16 -20 -24 -28 -32 -36 0
-5 -9 -13 -17 -21 -25 -29 -33 -37 0
-6 -10 -14 -18 -22 -26 -30 -34 -38 0
-7 -11 -15 -19 -23 -27 -31 -35 -39 0
-8 -12 -16 -20 -24 -28 -32 -36 -40 0
-9 -13 -17 -21 -25 -29 -33 -37 -41 0
-10 -14 -18 -22 -26 -30 -34 -38 -42 0
-11 -15 -19 -23 -27 -31 -35 -39 -43 0
-12 -16 -20 -24 -28 -32 -36 -40 -44 0
-13 -17 -21 -25 -29 -33 -37 -41 -45 0
-14 -18 -22 -26 -30 -34 -38 -42 -46 0
-15 -19 -23 -27 -31 -35 -39 -43 -47 0
-16 -20 -24 -28 -32 -36 -40 -44 -48 0
-17 -21 -25 -29 -33 -37 -41 -45 -49 0
-18 -22 -26 -30 -34 -38 -42 -46 -50 0
-19 -23 -27 -31 -35 -39 -43 -47 -51 0
-20 -24 -28 -32 -36 -40 -44 -48 -52 0
-21 -25 -29 -33 -37 -41 -45 -49 -53 0
-22 -26 -30 -34 -38 -42 -46 -50 -54 0
-23 -27 -31 -35 -39 -43 -47 -51 -55 0
-24 -28 -32 -36 -40 -44 -48 -52 -56 0
-25 -29 -33 -37 -41 -45 -49 -53 -57 0
-26 -30 -34 -38 -42 -46 -50 -54 -58 0
-27 -31 -35 -39 -43 -47 -51 -55 -59 0
-28 -32 -36 -40 -44 -48 -52 -56 -60 0
-29 -33 -37 -41 -45 -49 -53 -57 -61 0
-30 -34 -38 -42 -46 -50 -54 -58 -62 0
-31 -35 -39 -43 -47 -51 -55 -59 -63 0
-32 -36 -40 -44 -48 -52 -56 -60 -64 0
-33 -37 -41 -45 -49 -53 -57 -61 -65 0
-34 -38 -42 -46 -50 -54 -58 -62 -66 0
-35 -39 -43 -47 -51 -55 -59 -63 -67 0
-36 -40 -44 -48 -52 -56 -60 -64 -68 0
-37 -41 -45 -49 -53 -57 -61 -65 -69 0
-38 -42 -46 -50 -54 -58 -62 -66 -70 0
-39 -43 -47 -51 -55 -59 -63 -67 -71 0
-40 -44 -48 -52 -56 -60 -64 -68 -72 0
-41 -45 -49 -53 -57 -61 -65 -69 -73 0
-42 -46 -50 -54 -58 -62 -66 -70 -74 0
-43 -47 -51 -55 -59 -63 -67 -71 -75 0
-44 -48 -52 -56 -60 -64 -68 -72 -76 0
1 6 11 0
2 7 12 0
3 8 13 0
4 9 14 0
5 10 15 0
6 11 16 0
7 12 17 0
8 13 18 0
9 14 19 0
10 15 20 0
11 16 21 0
12 17 22 0
13 18 23 0
14 19 24 0
15 20 25 0
16 21 26 0
17 22 27 0
18 23 28 0
19 24 29 0
20 25 30 0
21 26 31 0
22 27 32 0
23 28 33 0
24 29 34 0
25 30 35 0
26 31 36 0
27 32 37 0
28 33 38 0
29 34 39 0
30 35 40 0
31 36 41 0
32 37 42 0
33 38 43 0
34 39 44 0
35 40 45 0
36 41 46 0
37 42 47 0
38 43 48 0
39 44 49 0
40 45 50 0
41 46 51 0
42 47 52 0
43 48 53 0
44 49 54 0
45 50 55 0
46 51 56 0
47 52 57 0
48 53 58 0
49 54 59 0
50 55 60 0
51 56 61 0
52 57 62 0
53 58 63 0
54 59 64 0
55 60 65 0
56 61 66 0
57 62 67 0
58 63 68 0
59 64 69 0
60 65 70 0
61 66 71 0
62 67 72 0
63 68 73 0
64 69 74 0
65 70 75 0
66 71 76 0
-1 -6 -11 -16 -21 -26 -31 -36 -41 0
-2 -7 -12 -17 -22 -27 -32 -37 -42 0
-3 -8 -13 -18 -23 -28 -33 -38 -43 0
-4 -9 -14 -19 -24 -29 -34 -39 -44 0
-5 -10 -15 -20 -25 -30 -35 -40 -45 0
-6 -11 -16 -21 -26 -31 -36 -41 -46 0
-7 -12 -17 -22 -27 -32 -37 -42 -47 0
-8 -13 -18 -23 -28 -33 -38 -43 -48 0
-9 -14 -19 -24 -29 -34 -39 -44 -49 0
-10 -15 -20 -25 -30 -35 -40 -45 -50 0
-11 -16 -21 -26 -31 -36 -41 -46 -51 0
-12 -17 -22 -27 -32 -37 -42 -47 -52 0
-13 -18 -23 -28 -33 -38 -43 -48 -53 0
-14 -19 -24 -29 -34 -39 -44 -49 -54 0
-15 -20 -25 -30 -35 -40 -45 -50 -55 0
-16 -21 -26 -31 -36 -41 -46 -51 -56 0
-17 -22 -27 -32 -37 -42 -47 -52 -57 0
-18 -23 -28 -33 -38 -43 -48 -53 -58 0
-19 -24 -29 -34 -39 -44 -49 -54 -59 0
-20 -25 -30 -35 -40 -45 -50 -55 -60 0
-21 -26 -31 -36 -41 -46 -51 -56 -61 0
-22 -27 -32 -37 -42 -47 -52 -57 -62 0
-23 -28 -33 -38 -43 -48 -53 -58 -63 0
-24 -29 -34 -39 -44 -49 -54 -59 -64 0
-25 -30 -35 -40 -45 -50 -55 -60 -65 0
-26 -31 -36 -41 -46 -51 -56 -61 -66 0
-27 -32 -37 -42 -47 -52 -57 -62 -67 0
-28 -33 -38 -43 -48 -53 -58 -63 -68 0
-29 -34 -39 -44 -49 -54 -59 -64 -69 0
-30 -35 -40 -45 -50 -55 -60 -65 -70 0
-31 -36 -41 -46 -51 -56 -61 -66 -71 0
-32 -37 -42 -47 -52 -57 -62 -67 -72 0
-33 -38 -43 -48 -53 -58 -63 -68 -73 0
-34 -39 -44 -49 -54 -59 -64 -69 -74 0
-35 -40 -45 -50 -55 -60 -65 -70 -75 0
-36 -41 -46 -51 -56 -61 -66 -71 -76 0
1 7 13 0
2 8 14 0
3 9 15 0
4 10 16 0
5 11 17 0
6 12 18 0
7 13 19 0
8 14 20 0
9 15 21 0
10 16 22 0
11 17 23 0
12 18 24 0
13 19 25 0
14 20 26 0
15 21 27 0
16 22 28 0
17 23 29 0
18 24 30 0
19 25 31 0
20 26 32 0
21 27 33 0
22 28 34 0
23 29 35 0
24 30 36 0
25 31 37 0
26 32 38 0
27 33 39 0
28 34 40 0
29 35 41 0
30 36 42 0
31 37 43 0
32 38 44 0
33 39 45 0
34 40 46 0
35 41 47 0
36 42 48 0
37 43 49 0
38 44 50 0
39 45 51 0
40 46 52 0
41 47 53 0
42 48 54 0
43 49 55 0
44 50 56 0
45 51 57 0
46 52 58 0
47 53 59 0
48 54 60 0
49 55 61 0
50 56 62 0
51 57 63 0
52 58 64 0
53 59 65 0
54 60 66 0
55 61 67 0
56 62 68 0
57 63 69 0
58 64 70 0
59 65 71 0
60 66 72 0
61 67 73 0
62 68 74 0
63 69 75 0
64 70 76 0
-1 -7 -13 -19 -25 -31 -37 -43 -49 0
-2 -8 -14 -20 -26 -32 -38 -44 -50 0
-3 -9 -15 -21 -27 -33 -39 -45 -51 0
-4 -10 -16 -22 -28 -34 -40 -46 -52 0
-5 -11 -17 -23 -29 -35 -41 -47 -53 0
-6 -12 -18 -24 -30 -36 -42 -48 -54 0
-7 -13 -19 -25 -31 -37 -43 -49 -55 0
-8 -14 -20 -26 -32 -38 -44 -50 -56 0
-9 -15 -21 -27 -33 -39 -45 -51 -57 0
-10 -16 -22 -28 -34 -40 -46 -52 -58 0
-11 -17 -23 -29 -35 -41 -47 -53 -59 0
-12 -18 -24 -30 -36 -42 -48 -54 -60 0
-13 -19 -25 -31 -37 -43 -49 -55 -61 0
-14 -20 -26 -32 -38 -44 -50 -56 -62 0
-15 -21 -27 -33 -39 -45 -51 -57 -63 0
-16 -22 -28 -34 -40 -46 -52 -58 -64 0
-17 -23 -29 -35 -41 -47 -53 -59 -65 0
-18 -24 -30 -36 -42 -48 -54 -60 -66 0
-19 -25 -31 -37 -43 -49 -55 -61 -67 0
-20 -26 -32 -38 -44 -50 -56 -62 -68 0
-21 -27 -33 -39 -45 -51 -57 -63 -69 0
-22 -28 -34 -40 -46 -52 -58 -64 -70 0
-23 -29 -35 -41 -47 -53 -59 -65 -71 0
-24 -30 -36 -42 -48 -54 -60 -66 -72 0
-25 -31 -37 -43 -49 -55 -61 -67 -73 0
-26 -32 -38 -44 -50 -56 -62 -68 -74 0
-27 -33 -39 -45 -51 -57 -63 -69 -75 0
-28 -34 -40 -46 -52 -58 -64 -70 -76 0
1 8 15 0
2 9 16 0
3 10 17 0
4 11 18 0
5 12 19 0
6 13 20 0
7 14 21 0
8 15 22 0
9 16 23 0
10 17 24 0
11 18 25 0
12 19 26 0
13 20 27 0
14 21 28 0
15 22 29 0
16 23 30 0
17 24 31 0
18 25 32 0
19 26 33 0
20 27 34 0
21 28 35 0
22 29 36 0
23 30 37 0
24 31 38 0
25 32 39 0
26 33 40 0
27 34 41 0
28 35 42 0
29 36 43 0
30 37 44 0
31 38 45 0
32 39 46 0
33 40 47 0
34 41 48 0
35 42 49 0
36 43 50 0
37 44 51 0
38 45 52 0
39 46 53 0
40 47 54 0
41 48 55 0
42 49 56 0
43 50 57 0
44 51 58 0
45 52 59 0
46 53 60 0
47 54 61 0
48 55 62 0
49 56 63 0
50 57 64 0
51 58 65 0
52 59 66 0
53 60 67 0
54 61 68 0
55 62 69 0
56 63 70 0
57 64 71 0
58 65 72 0
59 66 73 0
60 67 74 0
61 68 75 0
62 69 76 0
-1 -8 -15 -22 -29 -36 -43 -50 -57 0
-2 -9 -16 -23 -30 -37 -44 -51 -58 0
-3 -10 -17 -24 -31 -38 -45 -52 -59 0
-4 -11 -18 -25 -32 -39 -46 -53 -60 0
-5 -12 -19 -26 -33 -40 -47 -54 -61 0
-6 -13 -20 -27 -34 -41 -48 -55 -62 0
-7 -14 -21 -28 -35 -42 -49 -56 -63 0
-8 -15 -22 -29 -36 -43 -50 -57 -64 0
-9 -16 -23 -30 -37 -44 -51 -58 -65 0
-10 -17 -24 -31 -38 -45 -52 -59 -66 0
-11 -18 -25 -32 -39 -46 -53 -60 -67 0
-12 -19 -26 -33 -40 -47 -54 -61 -68 0
-13 -20 -27 -34 -41 -48 -55 -62 -69 0
-14 -21 -28 -35 -42 -49 -56 -63 -70 0
-15 -22 -29 -36 -43 -50 -57 -64 -71 0
-16 -23 -30 -37 -44 -51 -58 -65 -72 0
-17 -24 -31 -38 -45 -52 -59 -66 -73 0
-18 -25 -32 -39 -46 -53 -60 -67 -74 0
-19 -26 -33 -40 -47 -54 -61 -68 -75 0
-20 -27 -34 -41 -48 -55 -62 -69 -76 0
1 9 17 0
2 10 18 0
3 11 19 0
4 12 20 0
5 13 21 0
6 14 22 0
7 15 23 0
8 16 24 0
9 17 25 0
10 18 26 0
11 19 27 0
12 20 28 0
13 21 29 0
14 22 30 0
15 23 31 0
16 24 32 0
17 25 33 0
18 26 34 0
19 27 35 0
20 28 36 0
21 29 37 0
22 30 38 0
23 31 39 0
24 32 40 0
25 33 41 0
26 34 42 0
27 35 43 0
28 36 44 0
29 37 45 0
30 38 46 0
31 39 47 0
32 40 48 0
33 41 49 0
34 42 50 0
35 43 51 0
36 44 52 0
37 45 53 0
38 46 54 0
39 47 55 0
40 48 56 0
41 49 57 0
42 50 58 0
43 51 59 0
44 52 60 0
45 53 61 0
46 54 62 0
47 55 63 0
48 56 64 0
49 57 65 0
50 58 66 0
51 59 67 0
52 60 68 0
53 61 69 0
54 62 70 0
55 63 71 0
56 64 72 0
57 65 73 0
58 66 74 0
59 67 75 0
60 68 76 0
-1 -9 -17 -25 -33 -41 -49 -57 -65 0
-2 -10 -18 -26 -34 -42 -50 -58 -66 0
-3 -11 -19 -27 -35 -43 -51 -59 -67 0
-4 -12 -20 -28 -36 -44 -52 -60 -68 0
-5 -13 -21 -29 -37 -45 -53 -61 -69 0
-6 -14 -22 -30 -38 -46 -54 -62 -70 0
-7 -15 -23 -31 -39 -47 -55 -63 -71 0
-8 -16 -24 -32 -40 -48 -56 -64 -72 0
-9 -17 -25 -33 -41 -49 -57 -65 -73 0
-10 -18 -26 -34 -42 -50 -58 -66 -74 0
-11 -19 -27 -35 -43 -51 -59 -67 -75 0
-12 -20 -28 -36 -44 -52 -60 -68 -76 0
1 10 19 0
2 11 20 0
3 12 21 0
4 13 22 0
5 14 23 0
6 15 24 0
7 16 25 0
8 17 26 0
9 18 27 0
10 19 28 0
11 20 29 0
12 21 30 0
13 22 31 0
14 23 32 0
15 24 33 0
16 25 34 0
17 26 35 0
18 27 36 0
19 28 37 0
20 29 38 0
21 30 39 0
22 31 40 0
23 32 41 0
24 33 42 0
25 34 43 0
26 35 44 0
27 36 45 0
28 37 46 0
29 38 47 0
30 39 48 0
31 40 49 0
32 41 50 0
33 42 51 0
34 43 52 0
35 44 53 0
36 45 54 0
37 46 55 0
38 47 56 0
39 48 57 0
40 49 58 0
41 50 59 0
42 51 60 0
43 52 61 0
44 53 62 0
45 54 63 0
46 55 64 0
47 56 65 0
48 57 66 0
49 58 67 0
50 59 68 0
51 60 69 0
52 61 70 0
53 62 71 0
54 63 72 0
55 64 73 0
56 65 74 0
57 66 75 0
58 67 76 0
-1 -10 -19 -28 -37 -46 -55 -64 -73 0
-2 -11 -20 -29 -38 -47 -56 -65 -74 0
-3 -12 -21 -30 -39 -48 -57 -66 -75 0
-4 -13 -22 -31 -40 -49 -58 -67 -76 0
1 11 21 0
2 12 22 0
3 13 23 0
4 14 24 0
5 15 25 0
6 16 26 0
7 17 27 0
8 18 28 0
9 19 29 0
10 20 30 0
11 21 31 0
12 22 32 0
13 23 33 0
14 24 34 0
15 25 35 0
16 26 36 0
17 27 37 0
18 28 38 0
19 29 39 0
20 30 40 0
21 31 41 0
22 32 42 0
23 33 43 0
24 34 44 0
25 35 45 0
26 36 46 0
27 37 47 0
28 38 48 0
29 39 49 0
30 40 50 0
31 41 51 0
32 42 52 0
33 43 53 0
34 44 54 0
35 45 55 0
36 46 56 0
37 47 57 0
38 48 58 0
39 49 59 0
40 50 60 0
41 51 61 0
42 52 62 0
43 53 63 0
44 54 64 0
45 55 65 0
46 56 66 0
47 57 67 0
48 58 68 0
49 59 69 0
50 60 70 0
51 61 71 0
52 62 72 0
53 63 73 0
54 64 74 0
55 65 75 0
56 66 76 0
1 12 23 0
2 13 24 0
3 14 25 0
4 15 26 0
5 16 27 0
6 17 28 0
7 18 29 0
8 19 30 0
9 20 31 0
10 21 32 0
11 22 33 0
12 23 34 0
13 24 35 0
14 25 36 0
15 26 37 0
16 27 38 0
17 28 39 0
18 29 40 0
19 30 41 0
20 31 42 0
21 32 43 0
22 33 44 0
23 34 45 0
24 35 46 0
25 36 47 0
26 37 48 0
27 38 49 0
28 39 50 0
29 40 51 0
30 41 52 0
31 42 53 0
32 43 54 0
33 44 55 0
34 45 56 0
35 46 57 0
36 47 58 0
37 48 59 0
38 49 60 0
39 50 61 0
40 51 62 0
41 52 63 0
42 53 64 0
43 54 65 0
44 55 66 0
45 56 67 0
46 57 68 0
47 58 69 0
48 59 70 0
49 60 71 0
50 61 72 0
51 62 73 0
52 63 74 0
53 64 75 0
54 65 76 0
1 13 25 0
2 14 26 0
3 15 27 0
4 16 28 0
5 17 29 0
6 18 30 0
7 19 31 0
8 20 32 0
9 21 33 0
10 22 34 0
11 23 35 0
12 24 36 0
13 25 37 0
14 26 38 0
15 27 39 0
16 28 40 0
17 29 41 0
18 30 42 0
19 31 43 0
20 32 44 0
21 33 45 0
22 34 46 0
23 35 47 0
24 36 48 0
25 37 49 0
26 38 50 0
27 39 51 0
28 40 52 0
29 41 53 0
30 42 54 0
31 43 55 0
32 44 56 0
33 45 57 0
34 46 58 0
35 47 59 0
36 48 60 0
37 49 61 0
38 50 62 0
39 51 63 0
40 52 64 0
41 53 65 0
42 54 66 0
43 55 67 0
44 56 68 0
45 57 69 0
46 58 70 0
47 59 71 0
48 60 72 0
49 61 73 0
50 62 74 0
51 63 75 0
52 64 76 0
1 14 27 0
2 15 28 0
3 16 29 0
4 17 30 0
5 18 31 0
6 19 32 0
7 20 33 0
8 21 34 0
9 22 35 0
10 23 36 0
11 24 37 0
12 25 38 0
13 26 39 0
14 27 40 0
15 28 41 0
16 29 42 0
17 30 43 0
18 31 44 0
19 32 45 0
20 33 46 0
21 34 47 0
22 35 48 0
23 36 49 0
24 37 50 0
25 38 51 0
26 39 52 0
27 40 53 0
28 41 54 0
29 42 55 0
30 43 56 0
31 44 57 0
32 45 58 0
33 46 59 0
34 47 60 0
35 48 61 0
36 49 62 0
37 50 63 0
38 51 64 0
39 52 65 0
40 53 66 0
41 54 67 0
42 55 68 0
43 56 69 0
44 57 70 0
45 58 71 0
46 59 72 0
47 60 73 0
48 61 74 0
49 62 75 0
50 63 76 0
1 15 29 0
2 16 30 0
3 17 31 0
4 18 32 0
5 19 33 0
6 20 34 0
7 21 35 0
8 22 36 0
9 23 37 0
10 24 38 0
11 25 39 0
12 26 40 0
13 27 41 0
14 28 42 0
15 29 43 0
16 30 44 0
17 31 45 0
18 32 46 0
19 33 47 0
20 34 48 0
21 35 49 0
22 36 50 0
23 37 51 0
24 38 52 0
25 39 53 0
26 40 54 0
27 41 55 0
28 42 56 0
29 43 57 0
30 44 58 0
31 45 59 0
32 46 60 0
33 47 61 0
34 48 62 0
35 49 63 0
36 50 64 0
37 51 65 0
38 52 66 0
39 53 67 0
40 54 68 0
41 55 69 0
42 56 70 0
43 57 71 0
44 58 72 0
45 59 73 0
46 60 74 0
47 61 75 0
48 62 76 0
1 16 31 0
2 17 32 0
3 18 33 0
4 19 34 0
5 20 35 0
6 21 36 0
7 22 37 0
8 23 38 0
9 24 39 0
10 25 40 0
11 26 41 0
12 27 42 0
13 28 43 0
14 29 44 0
15 30 45 0
16 31 46 0
17 32 47 0
18 33 48 0
19 34 49 0
20 35 50 0
21 36 51 0
22 37 52 0
23 38 53 0
24 39 54 0
25 40 55 0
26 41 56 0
27 42 57 0
28 43 58 0
29 44 59 0
30 45 60 0
31 46 61 0
32 47 62 0
33 48 63 0
34 49 64 0
35 50 65 0
36 51 66 0
37 52 67 0
38 53 68 0
39 54 69 0
40 55 70 0
41 56 71 0
42 57 72 0
43 58 73 0
44 59 74 0
45 60 75 0
46 61 76 0
1 17 33 0
2 18 34 0
3 19 35 0
4 20 36 0
5 21 37 0
6 22 38 0
7 23 39 0
8 24 40 0
9 25 41 0
10 26 42 0
11 27 43 0
12 28 44 0
13 29 45 0
14 30 46 0
15 31 47 0
16 32 48 0
17 33 49 0
18 34 50 0
19 35 51 0
20 36 52 0
21 37 53 0
22 38 54 0
23 39 55 0
24 40 56 0
25 41 57 0
26 42 58 0
27 43 59 0
28 44 60 0
29 45 61 0
30 46 62 0
31 47 63 0
32 48 64 0
33 49 65 0
34 50 66 0
35 51 67 0
36 52 68 0
37 53 69 0
38 54 70 0
39 55 71 0
40 56 72 0
41 57 73 0
42 58 74 0
43 59 75 0
44 60 76 0
1 18 35 0
2 19 36 0
3 20 37 0
4 21 38 0
5 22 39 0
6 23 40 0
7 24 41 0
8 25 42 0
9 26 43 0
10 27 44 0
11 28 45 0
12 29 46 0
13 30 47 0
14 31 48 0
15 32 49 0
16 33 50 0
17 34 51 0
18 35 52 0
19 36 53 0
20 37 54 0
21 38 55 0
22 39 56 0
23 40 57 0
24 41 58 0
25 42 59 0
26 43 60 0
27 44 61 0
28 45 62 0
29 46 63 0
30 47 64 0
31 48 65 0
32 49 66 0
33 50 67 0
34 51 68 0
35 52 69 0
36 53 70 0
37 54 71 0
38 55 72 0
39 56 73 0
40 57 74 0
41 58 75 0
42 59 76 0
1 19 37 0
2 20 38 0
3 21 39 0
4 22 40 0
5 23 41 0
6 24 42 0
7 25 43 0
8 26 44 0
9 27 45 0
10 28 46 0
11 29 47 0
12 30 48 0
13 31 49 0
14 32 50 0
15 33 51 0
16 34 52 0
17 35 53 0
18 36 54 0
19 37 55 0
20 38 56 0
21 39 57 0
22 40 58 0
23 41 59 0
24 42 60 0
25 43 61 0
26 44 62 0
27 45 63 0
28 46 64 0
29 47 65 0
30 48 66 0
31 49 67 0
32 50 68 0
33 51 69 0
34 52 70 0
35 53 71 0
36 54 72 0
37 55 73 0
38 56 74 0
39 57 75 0
40 58 76 0
1 20 39 0
2 21 40 0
3 22 41 0
4 23 42 0
5 24 43 0
6 25 44 0
7 26 45 0
8 27 46 0
9 28 47 0
10 29 48 0
11 30 49 0
12 31 50 0
13 32 51 0
14 33 52 0
15 34 53 0
16 35 54 0
17 36 55 0
18 37 56 0
19 38 57 0
20 39 58 0
21 40 59 0
22 41 60 0
23 42 61 0
24 43 62 0
25 44 63 0
26 45 64 0
27 46 65 0
28 47 66 0
29 48 67 0
30 49 68 0
31 50 69 0
32 51 70 0
33 52 71 0
34 53 72 0
35 54 73 0
36 55 74 0
37 56 75 0
38 57 76 0
1 21 41 0
2 22 42 0
3 23 43 0
4 24 44 0
5 25 45 0
6 26 46 0
7 27 47 0
8 28 48 0
9 29 49 0
10 30 50 0
11 31 51 0
12 32 52 0
13 33 53 0
14 34 54 0
15 35 55 0
16 36 56 0
17 37 57 0
18 38 58 0
19 39 59 0
20 40 60 0
21 41 61 0
22 42 62 0
23 43 63 0
24 44 64 0
25 45 65 0
26 46 66 0
27 47 67 0
28 48 68 0
29 49 69 0
30 50 70 0
31 51 71 0
32 52 72 0
33 53 73 0
34 54 74 0
35 55 75 0
36 56 76 0
1 22 43 0
2 23 44 0
3 24 45 0
4 25 46 0
5 26 47 0
6 27 48 0
7 28 49 0
8 29 50 0
9 30 51 0
10 31 52 0
11 32 53 0
12 33 54 0
13 34 55 0
14 35 56 0
15 36 57 0
16 37 58 0
17 38 59 0
18 39 60 0
19 40 61 0
20 41 62 0
21 42 63 0
22 43 64 0
23 44 65 0
24 45 66 0
25 46 67 0
26 47 68 0
27 48 69 0
28 49 70 0
29 50 71 0
30 51 72 0
31 52 73 0
32 53 74 0
33 54 75 0
34 55 76 0
1 23 45 0
2 24 46 0
3 25 47 0
4 26 48 0
5 27 49 0
6 28 50 0
7 29 51 0
8 30 52 0
9 31 53 0
10 32 54 0
11 33 55 0
12 34 56 0
13 35 57 0
14 36 58 0
15 37 59 0
16 38 60 0
17 39 61 0
18 40 62 0
19 41 63 0
20 42 64 0
21 43 65 0
22 44 66 0
23 45 67 0
24 46 68 0
25 47 69 0
26 48 70 0
27 49 71 0
28 50 72 0
29 51 73 0
30 52 74 0
31 53 75 0
32 54 76 0
1 24 47 0
2 25 48 0
3 26 49 0
4 27 50 0
5 28 51 0
6 29 52 0
7 30 53 0
8 31 54 0
9 32 55 0
10 33 56 0
11 34 57 0
12 35 58 0
13 36 59 0
14 37 60 0
15 38 61 0
16 39 62 0
17 40 63 0
18 41 64 0
19 42 65 0
20 43 66 0
21 44 67 0
22 45 68 0
23 46 69 0
24 47 70 0
25 48 71 0
26 49 72 0
27 50 73 0
28 51 74 0
29 52 75 0
30 53 76 0
1 25 49 0
2 26 50 0
3 27 51 0
4 28 52 0
5 29 53 0
6 30 54 0
7 31 55 0
8 32 56 0
9 33 57 0
10 34 58 0
11 35 59 0
12 36 60 0
13 37 61 0
14 38 62 0
15 39 63 0
16 40 64 0
17 41 65 0
18 42 66 0
19 43 67 0
20 44 68 0
21 45 69 0
22 46 70 0
23 47 71 0
24 48 72 0
25 49 73 0
26 50 74 0
27 51 75 0
28 52 76 0
1 26 51 0
2 27 52 0
3 28 53 0
4 29 54 0
5 30 55 0
6 31 56 0
7 32 57 0
8 33 58 0
9 34 59 0
10 35 60 0
11 36 61 0
12 37 62 0
13 38 63 0
14 39 64 0
15 40 65 0
16 41 66 0
17 42 67 0
18 43 68 0
19 44 69 0
20 45 70 0
21 46 71 0
22 47 72 0
23 48 73 0
24 49 74 0
25 50 75 0
26 51 76 0
1 27 53 0
2 28 54 0
3 29 55 0
4 30 56 0
5 31 57 0
6 32 58 0
7 33 59 0
8 34 60 0
9 35 61 0
10 36 62 0
11 37 63 0
12 38 64 0
13 39 65 0
14 40 66 0
15 41 67 0
16 42 68 0
17 43 69 0
18 44 70 0
19 45 71 0
20 46 72 0
21 47 73 0
22 48 74 0
23 49 75 0
24 50 76 0
1 28 55 0
2 29 56 0
3 30 57 0
4 31 58 0
5 32 59 0
6 33 60 0
7 34 61 0
8 35 62 0
9 36 63 0
10 37 64 0
11 38 65 0
12 39 66 0
13 40 67 0
14 41 68 0
15 42 69 0
16 43 70 0
17 44 71 0
18 45 72 0
19 46 73 0
20 47 74 0
21 48 75 0
22 49 76 0
1 29 57 0
2 30 58 0
3 31 59 0
4 32 60 0
5 33 61 0
6 34 62 0
7 35 63 0
8 36 64 0
9 37 65 0
10 38 66 0
11 39 67 0
12 40 68 0
13 41 69 0
14 42 70 0
15 43 71 0
16 44 72 0
17 45 73 0
18 46 74 0
19 47 75 0
20 48 76 0
1 30 59 0
2 31 60 0
3 32 61 0
4 33 62 0
5 34 63 0
6 35 64 0
7 36 65 0
8 37 66 0
9 38 67 0
10 39 68 0
11 40 69 0
12 41 70 0
13 42 71 0
14 43 72 0
15 44 73 0
16 45 74 0
17 46 75 0
18 47 76 0
1 31 61 0
2 32 62 0
3 33 63 0
4 34 64 0
5 35 65 0
6 36 66 0
7 37 67 0
8 38 68 0
9 39 69 0
10 40 70 0
11 41 71 0
12 42 72 0
13 43 73 0
14 44 74 0
15 45 75 0
16 46 76 0
1 32 63 0
2 33 64 0
3 34 65 0
4 35 66 0
5 36 67 0
6 37 68 0
7 38 69 0
8 39 70 0
9 40 71 0
10 41 72 0
11 42 73 0
12 43 74 0
13 44 75 0
14 45 76 0
1 33 65 0
2 34 66 0
3 35 67 0
4 36 68 0
5 37 69 0
6 38 70 0
7 39 71 0
8 40 72 0
9 41 73 0
10 42 74 0
11 43 75 0
12 44 76 0
1 34 67 0
2 35 68 0
3 36 69 0
4 37 70 0
5 38 71 0
6 39 72 0
7 40 73 0
8 41 74 0
9 42 75 0
10 43 76 0
1 35 69 0
2 36 70 0
3 37 71 0
4 38 72 0
5 39 73 0
6 40 74 0
7 41 75 0
8 42 76 0
1 36 71 0
2 37 72 0
3 38 73 0
4 39 74 0
5 40 75 0
6 41 76 0
1 37 73 0
2 38 74 0
3 39 75 0
4 40 76 0
1 38 75 0
2 39 76 0
